19
Atoms
F 2.118923 1.517844 0.454799
F 0.451907 0.520011 0.649256
F 1.356210 0.090855 0.156793
F -0.085176 1.226384 1.278818
F 1.363880 1.665764 1.983485
F 2.199326 0.517584 0.580689
F 1.375566 1.851276 0.981206
F 1.807549 0.928688 -0.271816
F 0.546084 1.991432 1.487870
F 1.331046 0.969351 0.525052
F 1.882716 1.086720 1.353416
F 1.325879 0.254646 1.160043
F 0.721908 0.902415 -0.223180
F 0.361579 0.384283 1.655340
F 0.461030 1.208906 2.188460
F 0.543547 1.578417 0.550280
F 1.312031 0.690317 2.082539
F 0.875247 1.110873 1.327385
F 1.310734 1.764225 -0.060442
